language ESSENCE' 1.0
letting values be [[1, 7, 0, 2, 5, 0, 3, 0, 9], [5, 0, 4, 1, 6, 9, 2, 0, 8], [2, 6, 0, 0, 3, 7, 0, 4, 0], [4, 5, 0, 3, 0, 8, 7, 9, 6], [3, 1, 7, 0, 0, 5, 0, 2, 0], [8, 9, 6, 4, 0, 0, 0, 1, 0], [6, 2, 1, 5, 4, 3, 9, 8, 0], [7, 4, 3, 0, 8, 1, 0, 0, 2], [9, 0, 5, 7, 0, 0, 4, 0, 0]]